NAME : custom-n32-equal-demands
COMMENT : (Augerat et al, No of trucks: 5, Optimal value: 784)
TYPE : CVRP
DIMENSION : 32
EDGE_WEIGHT_TYPE : EUC_2D
CAPACITY : 100
NODE_COORD_SECTION
 1 82 76
 2 96 44
 3 50 5
 4 49 8
 5 13 7
 6 29 89
 7 58 30
 8 84 39
 9 14 24
 10 2 39
 11 3 82
 12 5 10
 13 98 52
 14 84 25
 15 61 59
 16 1 65
 17 88 51
 18 91 2
 19 19 32
 20 93 3
 21 50 93
 22 98 14
 23 5 42
 24 42 9
 25 61 62
 26 9 97
 27 80 55
 28 57 69
 29 23 15
 30 20 70
 31 85 60
 32 98 5
DEMAND_SECTION
1 0
2 20
3 20
4 20
5 20
6 20
7 20
8 20
9 20
10 20
11 20
12 20
13 20
14 20
15 20
16 20
17 20
18 20
19 20
20 20
21 20
22 20
23 20
24 20
25 20
26 20
27 20
28 20
29 20
30 20
31 20
32 20
DEPOT_SECTION
 1
 -1
EOF
